p wcnf 502 1328
w -2 0.367879 0
w 2 2.718282 0
w -3 0.367879 0
w 3 2.718282 0
w -4 0.367879 0
w 4 2.718282 0
w -5 0.367879 0
w 5 2.718282 0
w -6 0.367879 0
w 6 2.718282 0
w -8 0.367879 0
w 8 2.718282 0
w -9 0.367879 0
w 9 2.718282 0
w -10 0.367879 0
w 10 2.718282 0
w -11 0.367879 0
w 11 2.718282 0
w -13 0.367879 0
w 13 2.718282 0
w -14 0.367879 0
w 14 2.718282 0
w -15 0.367879 0
w 15 2.718282 0
w -17 0.367879 0
w 17 2.718282 0
w -18 0.367879 0
w 18 2.718282 0
w -19 0.367879 0
w 19 2.718282 0
w -20 0.367879 0
w 20 2.718282 0
w -21 0.367879 0
w 21 2.718282 0
w -22 0.367879 0
w 22 2.718282 0
w -23 0.367879 0
w 23 2.718282 0
w -25 0.367879 0
w 25 2.718282 0
w -26 0.367879 0
w 26 2.718282 0
w -27 0.367879 0
w 27 2.718282 0
w -28 0.367879 0
w 28 2.718282 0
w -29 0.367879 0
w 29 2.718282 0
w -30 0.367879 0
w 30 2.718282 0
w -32 0.367879 0
w 32 2.718282 0
w -33 0.367879 0
w 33 2.718282 0
w -34 0.367879 0
w 34 2.718282 0
w -36 0.367879 0
w 36 2.718282 0
w -37 0.367879 0
w 37 2.718282 0
w -39 0.367879 0
w 39 2.718282 0
w -41 0.367879 0
w 41 2.718282 0
w -42 0.367879 0
w 42 2.718282 0
w -43 0.367879 0
w 43 2.718282 0
w -44 0.367879 0
w 44 2.718282 0
w -45 0.367879 0
w 45 2.718282 0
w -47 0.367879 0
w 47 2.718282 0
w -48 0.367879 0
w 48 2.718282 0
w -49 0.367879 0
w 49 2.718282 0
w -51 0.367879 0
w 51 2.718282 0
w -52 0.367879 0
w 52 2.718282 0
w -53 0.367879 0
w 53 2.718282 0
w -54 0.367879 0
w 54 2.718282 0
w -56 0.367879 0
w 56 2.718282 0
w -57 0.367879 0
w 57 2.718282 0
w -58 0.367879 0
w 58 2.718282 0
w -59 0.367879 0
w 59 2.718282 0
w -61 0.367879 0
w 61 2.718282 0
w -62 0.367879 0
w 62 2.718282 0
w -63 0.367879 0
w 63 2.718282 0
w -64 0.367879 0
w 64 2.718282 0
w -66 0.367879 0
w 66 2.718282 0
w -67 0.367879 0
w 67 2.718282 0
w -68 0.367879 0
w 68 2.718282 0
w -70 0.367879 0
w 70 2.718282 0
w -71 0.367879 0
w 71 2.718282 0
w -73 0.367879 0
w 73 2.718282 0
w -75 0.367879 0
w 75 2.718282 0
w -76 0.367879 0
w 76 2.718282 0
w -77 0.367879 0
w 77 2.718282 0
w -78 0.367879 0
w 78 2.718282 0
w -79 0.367879 0
w 79 2.718282 0
w -80 0.367879 0
w 80 2.718282 0
w -81 0.367879 0
w 81 2.718282 0
w -82 0.367879 0
w 82 2.718282 0
w -83 0.367879 0
w 83 2.718282 0
w -85 0.367879 0
w 85 2.718282 0
w -86 0.367879 0
w 86 2.718282 0
w -87 0.367879 0
w 87 2.718282 0
w -88 0.367879 0
w 88 2.718282 0
w -89 0.367879 0
w 89 2.718282 0
w -91 0.367879 0
w 91 2.718282 0
w -92 0.367879 0
w 92 2.718282 0
w -93 0.367879 0
w 93 2.718282 0
w -95 0.367879 0
w 95 2.718282 0
w -96 0.367879 0
w 96 2.718282 0
w -97 0.367879 0
w 97 2.718282 0
w -98 0.367879 0
w 98 2.718282 0
w -100 0.367879 0
w 100 2.718282 0
w -101 0.367879 0
w 101 2.718282 0
w -102 0.367879 0
w 102 2.718282 0
w -103 0.367879 0
w 103 2.718282 0
w -105 0.367879 0
w 105 2.718282 0
w -106 0.367879 0
w 106 2.718282 0
w -107 0.367879 0
w 107 2.718282 0
w -108 0.367879 0
w 108 2.718282 0
w -110 0.367879 0
w 110 2.718282 0
w -111 0.367879 0
w 111 2.718282 0
w -113 0.367879 0
w 113 2.718282 0
w -114 0.367879 0
w 114 2.718282 0
w -115 0.367879 0
w 115 2.718282 0
w -117 0.367879 0
w 117 2.718282 0
w -118 0.367879 0
w 118 2.718282 0
w -119 0.367879 0
w 119 2.718282 0
w -121 0.367879 0
w 121 2.718282 0
w -122 0.367879 0
w 122 2.718282 0
w -123 0.367879 0
w 123 2.718282 0
w -124 0.367879 0
w 124 2.718282 0
w -126 0.367879 0
w 126 2.718282 0
w -127 0.367879 0
w 127 2.718282 0
w -128 0.367879 0
w 128 2.718282 0
w -129 0.367879 0
w 129 2.718282 0
w -130 0.367879 0
w 130 2.718282 0
w -131 0.367879 0
w 131 2.718282 0
w -132 0.367879 0
w 132 2.718282 0
w -134 0.367879 0
w 134 2.718282 0
w -136 0.367879 0
w 136 2.718282 0
w -138 0.367879 0
w 138 2.718282 0
w -140 0.367879 0
w 140 2.718282 0
w -141 0.367879 0
w 141 2.718282 0
w -142 0.367879 0
w 142 2.718282 0
w -144 0.367879 0
w 144 2.718282 0
w -145 0.367879 0
w 145 2.718282 0
w -146 0.367879 0
w 146 2.718282 0
w -147 0.367879 0
w 147 2.718282 0
w -149 0.367879 0
w 149 2.718282 0
w -150 0.367879 0
w 150 2.718282 0
w -151 0.367879 0
w 151 2.718282 0
w -153 0.367879 0
w 153 2.718282 0
w -154 0.367879 0
w 154 2.718282 0
w -155 0.367879 0
w 155 2.718282 0
w -156 0.367879 0
w 156 2.718282 0
w -157 0.367879 0
w 157 2.718282 0
w -158 0.367879 0
w 158 2.718282 0
w -160 0.367879 0
w 160 2.718282 0
w -161 0.367879 0
w 161 2.718282 0
w -163 0.367879 0
w 163 2.718282 0
w -165 0.367879 0
w 165 2.718282 0
w -167 0.367879 0
w 167 2.718282 0
w -168 0.367879 0
w 168 2.718282 0
w -169 0.367879 0
w 169 2.718282 0
w -170 0.367879 0
w 170 2.718282 0
w -172 0.367879 0
w 172 2.718282 0
w -173 0.367879 0
w 173 2.718282 0
w -174 0.367879 0
w 174 2.718282 0
w -176 0.367879 0
w 176 2.718282 0
w -177 0.367879 0
w 177 2.718282 0
w -178 0.367879 0
w 178 2.718282 0
w -179 0.367879 0
w 179 2.718282 0
w -181 0.367879 0
w 181 2.718282 0
w -182 0.367879 0
w 182 2.718282 0
w -183 0.367879 0
w 183 2.718282 0
w -185 0.367879 0
w 185 2.718282 0
w -186 0.367879 0
w 186 2.718282 0
w -187 0.367879 0
w 187 2.718282 0
w -188 0.367879 0
w 188 2.718282 0
w -190 0.367879 0
w 190 2.718282 0
w -191 0.367879 0
w 191 2.718282 0
w -192 0.367879 0
w 192 2.718282 0
w -193 0.367879 0
w 193 2.718282 0
w -194 0.367879 0
w 194 2.718282 0
w -195 0.367879 0
w 195 2.718282 0
w -197 0.367879 0
w 197 2.718282 0
w -198 0.367879 0
w 198 2.718282 0
w -199 0.367879 0
w 199 2.718282 0
w -200 0.367879 0
w 200 2.718282 0
w -201 0.367879 0
w 201 2.718282 0
w -203 0.367879 0
w 203 2.718282 0
w -204 0.367879 0
w 204 2.718282 0
w -205 0.367879 0
w 205 2.718282 0
w -206 0.367879 0
w 206 2.718282 0
w -208 0.367879 0
w 208 2.718282 0
w -209 0.367879 0
w 209 2.718282 0
w -211 0.367879 0
w 211 2.718282 0
w -212 0.367879 0
w 212 2.718282 0
w -213 0.367879 0
w 213 2.718282 0
w -215 0.367879 0
w 215 2.718282 0
w -216 0.367879 0
w 216 2.718282 0
w -218 0.367879 0
w 218 2.718282 0
w -219 0.367879 0
w 219 2.718282 0
w -220 0.367879 0
w 220 2.718282 0
w -222 0.367879 0
w 222 2.718282 0
w -223 0.367879 0
w 223 2.718282 0
w -224 0.367879 0
w 224 2.718282 0
w -225 0.367879 0
w 225 2.718282 0
w -226 0.367879 0
w 226 2.718282 0
w -229 0.367879 0
w 229 2.718282 0
w -230 0.367879 0
w 230 2.718282 0
w -232 0.367879 0
w 232 2.718282 0
w -233 0.367879 0
w 233 2.718282 0
w -234 0.367879 0
w 234 2.718282 0
w -235 0.367879 0
w 235 2.718282 0
w -236 0.367879 0
w 236 2.718282 0
w -238 0.367879 0
w 238 2.718282 0
w -239 0.367879 0
w 239 2.718282 0
w -240 0.367879 0
w 240 2.718282 0
w -241 0.367879 0
w 241 2.718282 0
w -242 0.367879 0
w 242 2.718282 0
w -244 0.367879 0
w 244 2.718282 0
w -246 0.367879 0
w 246 2.718282 0
w -247 0.367879 0
w 247 2.718282 0
w -248 0.367879 0
w 248 2.718282 0
w -249 0.367879 0
w 249 2.718282 0
w -251 0.367879 0
w 251 2.718282 0
w -252 0.367879 0
w 252 2.718282 0
w -253 0.367879 0
w 253 2.718282 0
w -254 0.367879 0
w 254 2.718282 0
w -255 0.367879 0
w 255 2.718282 0
w -257 0.367879 0
w 257 2.718282 0
w -259 0.367879 0
w 259 2.718282 0
w -261 0.367879 0
w 261 2.718282 0
w -262 0.367879 0
w 262 2.718282 0
w -265 0.367879 0
w 265 2.718282 0
w -266 0.367879 0
w 266 2.718282 0
w -268 0.367879 0
w 268 2.718282 0
w -269 0.367879 0
w 269 2.718282 0
w -271 0.367879 0
w 271 2.718282 0
w -272 0.367879 0
w 272 2.718282 0
w -273 0.367879 0
w 273 2.718282 0
w -274 0.367879 0
w 274 2.718282 0
w -276 0.367879 0
w 276 2.718282 0
w -277 0.367879 0
w 277 2.718282 0
w -278 0.367879 0
w 278 2.718282 0
w -280 0.367879 0
w 280 2.718282 0
w -281 0.367879 0
w 281 2.718282 0
w -282 0.367879 0
w 282 2.718282 0
w -283 0.367879 0
w 283 2.718282 0
w -285 0.367879 0
w 285 2.718282 0
w -286 0.367879 0
w 286 2.718282 0
w -290 0.367879 0
w 290 2.718282 0
w -292 0.367879 0
w 292 2.718282 0
w -293 0.367879 0
w 293 2.718282 0
w -295 0.367879 0
w 295 2.718282 0
w -297 0.367879 0
w 297 2.718282 0
w -298 0.367879 0
w 298 2.718282 0
w -299 0.367879 0
w 299 2.718282 0
w -302 0.367879 0
w 302 2.718282 0
w -303 0.367879 0
w 303 2.718282 0
w -304 0.367879 0
w 304 2.718282 0
w -306 0.367879 0
w 306 2.718282 0
w -307 0.367879 0
w 307 2.718282 0
w -308 0.367879 0
w 308 2.718282 0
w -310 0.367879 0
w 310 2.718282 0
w -312 0.367879 0
w 312 2.718282 0
w -315 0.367879 0
w 315 2.718282 0
w -316 0.367879 0
w 316 2.718282 0
w -318 0.367879 0
w 318 2.718282 0
w -319 0.367879 0
w 319 2.718282 0
w -320 0.367879 0
w 320 2.718282 0
w -322 0.367879 0
w 322 2.718282 0
w -324 0.367879 0
w 324 2.718282 0
w -325 0.367879 0
w 325 2.718282 0
w -327 0.367879 0
w 327 2.718282 0
w -328 0.367879 0
w 328 2.718282 0
w -330 0.367879 0
w 330 2.718282 0
w -331 0.367879 0
w 331 2.718282 0
w -332 0.367879 0
w 332 2.718282 0
w -334 0.367879 0
w 334 2.718282 0
w -335 0.367879 0
w 335 2.718282 0
w -338 0.367879 0
w 338 2.718282 0
w -339 0.367879 0
w 339 2.718282 0
w -340 0.367879 0
w 340 2.718282 0
w -341 0.367879 0
w 341 2.718282 0
w -343 0.367879 0
w 343 2.718282 0
w -344 0.367879 0
w 344 2.718282 0
w -345 0.367879 0
w 345 2.718282 0
w -346 0.367879 0
w 346 2.718282 0
w -350 0.367879 0
w 350 2.718282 0
w -352 0.367879 0
w 352 2.718282 0
w -354 0.367879 0
w 354 2.718282 0
w -355 0.367879 0
w 355 2.718282 0
w -357 0.367879 0
w 357 2.718282 0
w -358 0.367879 0
w 358 2.718282 0
w -359 0.367879 0
w 359 2.718282 0
w -361 0.367879 0
w 361 2.718282 0
w -362 0.367879 0
w 362 2.718282 0
w -366 0.367879 0
w 366 2.718282 0
w -368 0.367879 0
w 368 2.718282 0
w -369 0.367879 0
w 369 2.718282 0
w -370 0.367879 0
w 370 2.718282 0
w -371 0.367879 0
w 371 2.718282 0
w -373 0.367879 0
w 373 2.718282 0
w -376 0.367879 0
w 376 2.718282 0
w -377 0.367879 0
w 377 2.718282 0
w -379 0.367879 0
w 379 2.718282 0
w -380 0.367879 0
w 380 2.718282 0
w -382 0.367879 0
w 382 2.718282 0
w -384 0.367879 0
w 384 2.718282 0
w -385 0.367879 0
w 385 2.718282 0
w -386 0.367879 0
w 386 2.718282 0
w -387 0.367879 0
w 387 2.718282 0
w -389 0.367879 0
w 389 2.718282 0
w -390 0.367879 0
w 390 2.718282 0
w -391 0.367879 0
w 391 2.718282 0
w -393 0.367879 0
w 393 2.718282 0
w -394 0.367879 0
w 394 2.718282 0
w -396 0.367879 0
w 396 2.718282 0
w -397 0.367879 0
w 397 2.718282 0
w -398 0.367879 0
w 398 2.718282 0
w -400 0.367879 0
w 400 2.718282 0
w -402 0.367879 0
w 402 2.718282 0
w -404 0.367879 0
w 404 2.718282 0
w -406 0.367879 0
w 406 2.718282 0
w -408 0.367879 0
w 408 2.718282 0
w -410 0.367879 0
w 410 2.718282 0
w -411 0.367879 0
w 411 2.718282 0
w -413 0.367879 0
w 413 2.718282 0
w -414 0.367879 0
w 414 2.718282 0
w -416 0.367879 0
w 416 2.718282 0
w -417 0.367879 0
w 417 2.718282 0
w -418 0.367879 0
w 418 2.718282 0
w -422 0.367879 0
w 422 2.718282 0
w -423 0.367879 0
w 423 2.718282 0
w -424 0.367879 0
w 424 2.718282 0
w -425 0.367879 0
w 425 2.718282 0
w -427 0.367879 0
w 427 2.718282 0
w -429 0.367879 0
w 429 2.718282 0
w -431 0.367879 0
w 431 2.718282 0
w -434 0.367879 0
w 434 2.718282 0
w -435 0.367879 0
w 435 2.718282 0
w -437 0.367879 0
w 437 2.718282 0
w -439 0.367879 0
w 439 2.718282 0
w -441 0.367879 0
w 441 2.718282 0
w -443 0.367879 0
w 443 2.718282 0
w -444 0.367879 0
w 444 2.718282 0
w -447 0.367879 0
w 447 2.718282 0
w -449 0.367879 0
w 449 2.718282 0
w -451 0.367879 0
w 451 2.718282 0
w -453 0.367879 0
w 453 2.718282 0
w -454 0.367879 0
w 454 2.718282 0
w -456 0.367879 0
w 456 2.718282 0
w -460 0.367879 0
w 460 2.718282 0
w -462 0.367879 0
w 462 2.718282 0
w -468 0.367879 0
w 468 2.718282 0
w -473 0.367879 0
w 473 2.718282 0
w -474 0.367879 0
w 474 2.718282 0
w -477 0.367879 0
w 477 2.718282 0
w -480 0.367879 0
w 480 2.718282 0
w -482 0.367879 0
w 482 2.718282 0
w -486 0.367879 0
w 486 2.718282 0
w -488 0.367879 0
w 488 2.718282 0
w -490 0.367879 0
w 490 2.718282 0
2 1 94 0
2 -1 -94 0
-2 1 -94 0
-2 -1 94 0
3 1 148 0
3 -1 -148 0
-3 1 -148 0
-3 -1 148 0
4 1 412 0
4 -1 -412 0
-4 1 -412 0
-4 -1 412 0
5 1 455 0
5 -1 -455 0
-5 1 -455 0
-5 -1 455 0
6 1 461 0
6 -1 -461 0
-6 1 -461 0
-6 -1 461 0
8 7 196 0
8 -7 -196 0
-8 7 -196 0
-8 -7 196 0
9 7 207 0
9 -7 -207 0
-9 7 -207 0
-9 -7 207 0
10 7 258 0
10 -7 -258 0
-10 7 -258 0
-10 -7 258 0
11 7 498 0
11 -7 -498 0
-11 7 -498 0
-11 -7 498 0
13 12 50 0
13 -12 -50 0
-13 12 -50 0
-13 -12 50 0
14 12 135 0
14 -12 -135 0
-14 12 -135 0
-14 -12 135 0
15 12 210 0
15 -12 -210 0
-15 12 -210 0
-15 -12 210 0
17 16 202 0
17 -16 -202 0
-17 16 -202 0
-17 -16 202 0
18 16 309 0
18 -16 -309 0
-18 16 -309 0
-18 -16 309 0
19 16 323 0
19 -16 -323 0
-19 16 -323 0
-19 -16 323 0
20 16 329 0
20 -16 -329 0
-20 16 -329 0
-20 -16 329 0
21 16 383 0
21 -16 -383 0
-21 16 -383 0
-21 -16 383 0
22 16 420 0
22 -16 -420 0
-22 16 -420 0
-22 -16 420 0
23 16 440 0
23 -16 -440 0
-23 16 -440 0
-23 -16 440 0
25 24 99 0
25 -24 -99 0
-25 24 -99 0
-25 -24 99 0
26 24 260 0
26 -24 -260 0
-26 24 -260 0
-26 -24 260 0
27 24 275 0
27 -24 -275 0
-27 24 -275 0
-27 -24 275 0
28 24 363 0
28 -24 -363 0
-28 24 -363 0
-28 -24 363 0
29 24 392 0
29 -24 -392 0
-29 24 -392 0
-29 -24 392 0
30 24 459 0
30 -24 -459 0
-30 24 -459 0
-30 -24 459 0
32 31 217 0
32 -31 -217 0
-32 31 -217 0
-32 -31 217 0
33 31 258 0
33 -31 -258 0
-33 31 -258 0
-33 -31 258 0
34 31 466 0
34 -31 -466 0
-34 31 -466 0
-34 -31 466 0
36 35 264 0
36 -35 -264 0
-36 35 -264 0
-36 -35 264 0
37 35 374 0
37 -35 -374 0
-37 35 -374 0
-37 -35 374 0
39 38 446 0
39 -38 -446 0
-39 38 -446 0
-39 -38 446 0
41 40 125 0
41 -40 -125 0
-41 40 -125 0
-41 -40 125 0
42 40 210 0
42 -40 -210 0
-42 40 -210 0
-42 -40 210 0
43 40 388 0
43 -40 -388 0
-43 40 -388 0
-43 -40 388 0
44 40 457 0
44 -40 -457 0
-44 40 -457 0
-44 -40 457 0
45 40 458 0
45 -40 -458 0
-45 40 -458 0
-45 -40 458 0
47 46 143 0
47 -46 -143 0
-47 46 -143 0
-47 -46 143 0
48 46 313 0
48 -46 -313 0
-48 46 -313 0
-48 -46 313 0
49 46 491 0
49 -46 -491 0
-49 46 -491 0
-49 -46 491 0
51 50 175 0
51 -50 -175 0
-51 50 -175 0
-51 -50 175 0
52 50 270 0
52 -50 -270 0
-52 50 -270 0
-52 -50 270 0
53 50 321 0
53 -50 -321 0
-53 50 -321 0
-53 -50 321 0
54 50 326 0
54 -50 -326 0
-54 50 -326 0
-54 -50 326 0
56 55 184 0
56 -55 -184 0
-56 55 -184 0
-56 -55 184 0
57 55 243 0
57 -55 -243 0
-57 55 -243 0
-57 -55 243 0
58 55 347 0
58 -55 -347 0
-58 55 -347 0
-58 -55 347 0
59 55 433 0
59 -55 -433 0
-59 55 -433 0
-59 -55 433 0
61 60 112 0
61 -60 -112 0
-61 60 -112 0
-61 -60 112 0
62 60 214 0
62 -60 -214 0
-62 60 -214 0
-62 -60 214 0
63 60 243 0
63 -60 -243 0
-63 60 -243 0
-63 -60 243 0
64 60 348 0
64 -60 -348 0
-64 60 -348 0
-64 -60 348 0
66 65 164 0
66 -65 -164 0
-66 65 -164 0
-66 -65 164 0
67 65 458 0
67 -65 -458 0
-67 65 -458 0
-67 -65 458 0
68 65 461 0
68 -65 -461 0
-68 65 -461 0
-68 -65 461 0
70 69 148 0
70 -69 -148 0
-70 69 -148 0
-70 -69 148 0
71 69 294 0
71 -69 -294 0
-71 69 -294 0
-71 -69 294 0
73 72 491 0
73 -72 -491 0
-73 72 -491 0
-73 -72 491 0
75 74 214 0
75 -74 -214 0
-75 74 -214 0
-75 -74 214 0
76 74 275 0
76 -74 -275 0
-76 74 -275 0
-76 -74 275 0
77 74 305 0
77 -74 -305 0
-77 74 -305 0
-77 -74 305 0
78 74 372 0
78 -74 -372 0
-78 74 -372 0
-78 -74 372 0
79 74 433 0
79 -74 -433 0
-79 74 -433 0
-79 -74 433 0
80 74 457 0
80 -74 -457 0
-80 74 -457 0
-80 -74 457 0
81 74 461 0
81 -74 -461 0
-81 74 -461 0
-81 -74 461 0
82 74 463 0
82 -74 -463 0
-82 74 -463 0
-82 -74 463 0
83 74 467 0
83 -74 -467 0
-83 74 -467 0
-83 -74 467 0
85 84 175 0
85 -84 -175 0
-85 84 -175 0
-85 -84 175 0
86 84 189 0
86 -84 -189 0
-86 84 -189 0
-86 -84 189 0
87 84 291 0
87 -84 -291 0
-87 84 -291 0
-87 -84 291 0
88 84 433 0
88 -84 -433 0
-88 84 -433 0
-88 -84 433 0
89 84 470 0
89 -84 -470 0
-89 84 -470 0
-89 -84 470 0
91 90 317 0
91 -90 -317 0
-91 90 -317 0
-91 -90 317 0
92 90 407 0
92 -90 -407 0
-92 90 -407 0
-92 -90 407 0
93 90 493 0
93 -90 -493 0
-93 90 -493 0
-93 -90 493 0
95 94 143 0
95 -94 -143 0
-95 94 -143 0
-95 -94 143 0
96 94 214 0
96 -94 -214 0
-96 94 -214 0
-96 -94 214 0
97 94 279 0
97 -94 -279 0
-97 94 -279 0
-97 -94 279 0
98 94 337 0
98 -94 -337 0
-98 94 -337 0
-98 -94 337 0
100 99 326 0
100 -99 -326 0
-100 99 -326 0
-100 -99 326 0
101 99 383 0
101 -99 -383 0
-101 99 -383 0
-101 -99 383 0
102 99 436 0
102 -99 -436 0
-102 99 -436 0
-102 -99 436 0
103 99 457 0
103 -99 -457 0
-103 99 -457 0
-103 -99 457 0
105 104 166 0
105 -104 -166 0
-105 104 -166 0
-105 -104 166 0
106 104 383 0
106 -104 -383 0
-106 104 -383 0
-106 -104 383 0
107 104 405 0
107 -104 -405 0
-107 104 -405 0
-107 -104 405 0
108 104 446 0
108 -104 -446 0
-108 104 -446 0
-108 -104 446 0
110 109 245 0
110 -109 -245 0
-110 109 -245 0
-110 -109 245 0
111 109 336 0
111 -109 -336 0
-111 109 -336 0
-111 -109 336 0
113 112 207 0
113 -112 -207 0
-113 112 -207 0
-113 -112 207 0
114 112 294 0
114 -112 -294 0
-114 112 -294 0
-114 -112 294 0
115 112 483 0
115 -112 -483 0
-115 112 -483 0
-115 -112 483 0
117 116 152 0
117 -116 -152 0
-117 116 -152 0
-117 -116 152 0
118 116 175 0
118 -116 -175 0
-118 116 -175 0
-118 -116 175 0
119 116 365 0
119 -116 -365 0
-119 116 -365 0
-119 -116 365 0
121 120 301 0
121 -120 -301 0
-121 120 -301 0
-121 -120 301 0
122 120 399 0
122 -120 -399 0
-122 120 -399 0
-122 -120 399 0
123 120 466 0
123 -120 -466 0
-123 120 -466 0
-123 -120 466 0
124 120 485 0
124 -120 -485 0
-124 120 -485 0
-124 -120 485 0
126 125 164 0
126 -125 -164 0
-126 125 -164 0
-126 -125 164 0
127 125 288 0
127 -125 -288 0
-127 125 -288 0
-127 -125 288 0
128 125 381 0
128 -125 -381 0
-128 125 -381 0
-128 -125 381 0
129 125 388 0
129 -125 -388 0
-129 125 -388 0
-129 -125 388 0
130 125 392 0
130 -125 -392 0
-130 125 -392 0
-130 -125 392 0
131 125 450 0
131 -125 -450 0
-131 125 -450 0
-131 -125 450 0
132 125 499 0
132 -125 -499 0
-132 125 -499 0
-132 -125 499 0
134 133 494 0
134 -133 -494 0
-134 133 -494 0
-134 -133 494 0
136 135 250 0
136 -135 -250 0
-136 135 -250 0
-136 -135 250 0
138 137 478 0
138 -137 -478 0
-138 137 -478 0
-138 -137 478 0
140 139 378 0
140 -139 -378 0
-140 139 -378 0
-140 -139 378 0
141 139 395 0
141 -139 -395 0
-141 139 -395 0
-141 -139 395 0
142 139 484 0
142 -139 -484 0
-142 139 -484 0
-142 -139 484 0
144 143 227 0
144 -143 -227 0
-144 143 -227 0
-144 -143 227 0
145 143 291 0
145 -143 -291 0
-145 143 -291 0
-145 -143 291 0
146 143 296 0
146 -143 -296 0
-146 143 -296 0
-146 -143 296 0
147 143 347 0
147 -143 -347 0
-147 143 -347 0
-147 -143 347 0
149 148 162 0
149 -148 -162 0
-149 148 -162 0
-149 -148 162 0
150 148 337 0
150 -148 -337 0
-150 148 -337 0
-150 -148 337 0
151 148 496 0
151 -148 -496 0
-151 148 -496 0
-151 -148 496 0
153 152 264 0
153 -152 -264 0
-153 152 -264 0
-153 -152 264 0
154 152 270 0
154 -152 -270 0
-154 152 -270 0
-154 -152 270 0
155 152 287 0
155 -152 -287 0
-155 152 -287 0
-155 -152 287 0
156 152 419 0
156 -152 -419 0
-156 152 -419 0
-156 -152 419 0
157 152 436 0
157 -152 -436 0
-157 152 -436 0
-157 -152 436 0
158 152 452 0
158 -152 -452 0
-158 152 -452 0
-158 -152 452 0
160 159 270 0
160 -159 -270 0
-160 159 -270 0
-160 -159 270 0
161 159 409 0
161 -159 -409 0
-161 159 -409 0
-161 -159 409 0
163 162 403 0
163 -162 -403 0
-163 162 -403 0
-163 -162 403 0
165 164 196 0
165 -164 -196 0
-165 164 -196 0
-165 -164 196 0
167 166 245 0
167 -166 -245 0
-167 166 -245 0
-167 -166 245 0
168 166 300 0
168 -166 -300 0
-168 166 -300 0
-168 -166 300 0
169 166 442 0
169 -166 -442 0
-169 166 -442 0
-169 -166 442 0
170 166 500 0
170 -166 -500 0
-170 166 -500 0
-170 -166 500 0
172 171 403 0
172 -171 -403 0
-172 171 -403 0
-172 -171 403 0
173 171 481 0
173 -171 -481 0
-173 171 -481 0
-173 -171 481 0
174 171 498 0
174 -171 -498 0
-174 171 -498 0
-174 -171 498 0
176 175 263 0
176 -175 -263 0
-176 175 -263 0
-176 -175 263 0
177 175 288 0
177 -175 -288 0
-177 175 -288 0
-177 -175 288 0
178 175 347 0
178 -175 -347 0
-178 175 -347 0
-178 -175 347 0
179 175 489 0
179 -175 -489 0
-179 175 -489 0
-179 -175 489 0
181 180 227 0
181 -180 -227 0
-181 180 -227 0
-181 -180 227 0
182 180 375 0
182 -180 -375 0
-182 180 -375 0
-182 -180 375 0
183 180 426 0
183 -180 -426 0
-183 180 -426 0
-183 -180 426 0
185 184 375 0
185 -184 -375 0
-185 184 -375 0
-185 -184 375 0
186 184 457 0
186 -184 -457 0
-186 184 -457 0
-186 -184 457 0
187 184 476 0
187 -184 -476 0
-187 184 -476 0
-187 -184 476 0
188 184 502 0
188 -184 -502 0
-188 184 -502 0
-188 -184 502 0
190 189 210 0
190 -189 -210 0
-190 189 -210 0
-190 -189 210 0
191 189 227 0
191 -189 -227 0
-191 189 -227 0
-191 -189 227 0
192 189 243 0
192 -189 -243 0
-192 189 -243 0
-192 -189 243 0
193 189 311 0
193 -189 -311 0
-193 189 -311 0
-193 -189 311 0
194 189 388 0
194 -189 -388 0
-194 189 -388 0
-194 -189 388 0
195 189 499 0
195 -189 -499 0
-195 189 -499 0
-195 -189 499 0
197 196 284 0
197 -196 -284 0
-197 196 -284 0
-197 -196 284 0
198 196 349 0
198 -196 -349 0
-198 196 -349 0
-198 -196 349 0
199 196 392 0
199 -196 -392 0
-199 196 -392 0
-199 -196 392 0
200 196 463 0
200 -196 -463 0
-200 196 -463 0
-200 -196 463 0
201 196 489 0
201 -196 -489 0
-201 196 -489 0
-201 -196 489 0
203 202 405 0
203 -202 -405 0
-203 202 -405 0
-203 -202 405 0
204 202 452 0
204 -202 -452 0
-204 202 -452 0
-204 -202 452 0
205 202 478 0
205 -202 -478 0
-205 202 -478 0
-205 -202 478 0
206 202 479 0
206 -202 -479 0
-206 202 -479 0
-206 -202 479 0
208 207 258 0
208 -207 -258 0
-208 207 -258 0
-208 -207 258 0
209 207 433 0
209 -207 -433 0
-209 207 -433 0
-209 -207 433 0
211 210 405 0
211 -210 -405 0
-211 210 -405 0
-211 -210 405 0
212 210 428 0
212 -210 -428 0
-212 210 -428 0
-212 -210 428 0
213 210 481 0
213 -210 -481 0
-213 210 -481 0
-213 -210 481 0
215 214 291 0
215 -214 -291 0
-215 214 -291 0
-215 -214 291 0
216 214 294 0
216 -214 -294 0
-216 214 -294 0
-216 -214 294 0
218 217 446 0
218 -217 -446 0
-218 217 -446 0
-218 -217 446 0
219 217 450 0
219 -217 -450 0
-219 217 -450 0
-219 -217 450 0
220 217 466 0
220 -217 -466 0
-220 217 -466 0
-220 -217 466 0
222 221 364 0
222 -221 -364 0
-222 221 -364 0
-222 -221 364 0
223 221 381 0
223 -221 -381 0
-223 221 -381 0
-223 -221 381 0
224 221 445 0
224 -221 -445 0
-224 221 -445 0
-224 -221 445 0
225 221 476 0
225 -221 -476 0
-225 221 -476 0
-225 -221 476 0
226 221 493 0
226 -221 -493 0
-226 221 -493 0
-226 -221 493 0
229 228 381 0
229 -228 -381 0
-229 228 -381 0
-229 -228 381 0
230 228 481 0
230 -228 -481 0
-230 228 -481 0
-230 -228 481 0
232 231 237 0
232 -231 -237 0
-232 231 -237 0
-232 -231 237 0
233 231 258 0
233 -231 -258 0
-233 231 -258 0
-233 -231 258 0
234 231 313 0
234 -231 -313 0
-234 231 -313 0
-234 -231 313 0
235 231 388 0
235 -231 -388 0
-235 231 -388 0
-235 -231 388 0
236 231 494 0
236 -231 -494 0
-236 231 -494 0
-236 -231 494 0
238 237 294 0
238 -237 -294 0
-238 237 -294 0
-238 -237 294 0
239 237 300 0
239 -237 -300 0
-239 237 -300 0
-239 -237 300 0
240 237 363 0
240 -237 -363 0
-240 237 -363 0
-240 -237 363 0
241 237 419 0
241 -237 -419 0
-241 237 -419 0
-241 -237 419 0
242 237 440 0
242 -237 -440 0
-242 237 -440 0
-242 -237 440 0
244 243 388 0
244 -243 -388 0
-244 243 -388 0
-244 -243 388 0
246 245 321 0
246 -245 -321 0
-246 245 -321 0
-246 -245 321 0
247 245 365 0
247 -245 -365 0
-247 245 -365 0
-247 -245 365 0
248 245 464 0
248 -245 -464 0
-248 245 -464 0
-248 -245 464 0
249 245 497 0
249 -245 -497 0
-249 245 -497 0
-249 -245 497 0
251 250 287 0
251 -250 -287 0
-251 250 -287 0
-251 -250 287 0
252 250 360 0
252 -250 -360 0
-252 250 -360 0
-252 -250 360 0
253 250 403 0
253 -250 -403 0
-253 250 -403 0
-253 -250 403 0
254 250 415 0
254 -250 -415 0
-254 250 -415 0
-254 -250 415 0
255 250 455 0
255 -250 -455 0
-255 250 -455 0
-255 -250 455 0
257 256 428 0
257 -256 -428 0
-257 256 -428 0
-257 -256 428 0
259 258 481 0
259 -258 -481 0
-259 258 -481 0
-259 -258 481 0
261 260 349 0
261 -260 -349 0
-261 260 -349 0
-261 -260 349 0
262 260 485 0
262 -260 -485 0
-262 260 -485 0
-262 -260 485 0
265 264 405 0
265 -264 -405 0
-265 264 -405 0
-265 -264 405 0
266 264 495 0
266 -264 -495 0
-266 264 -495 0
-266 -264 495 0
268 267 275 0
268 -267 -275 0
-268 267 -275 0
-268 -267 275 0
269 267 445 0
269 -267 -445 0
-269 267 -445 0
-269 -267 445 0
271 270 323 0
271 -270 -323 0
-271 270 -323 0
-271 -270 323 0
272 270 420 0
272 -270 -420 0
-272 270 -420 0
-272 -270 420 0
273 270 459 0
273 -270 -459 0
-273 270 -459 0
-273 -270 459 0
274 270 467 0
274 -270 -467 0
-274 270 -467 0
-274 -270 467 0
276 275 475 0
276 -275 -475 0
-276 275 -475 0
-276 -275 475 0
277 275 478 0
277 -275 -478 0
-277 275 -478 0
-277 -275 478 0
278 275 493 0
278 -275 -493 0
-278 275 -493 0
-278 -275 493 0
280 279 329 0
280 -279 -329 0
-280 279 -329 0
-280 -279 329 0
281 279 365 0
281 -279 -365 0
-281 279 -365 0
-281 -279 365 0
282 279 430 0
282 -279 -430 0
-282 279 -430 0
-282 -279 430 0
283 279 438 0
283 -279 -438 0
-283 279 -438 0
-283 -279 438 0
285 284 300 0
285 -284 -300 0
-285 284 -300 0
-285 -284 300 0
286 284 348 0
286 -284 -348 0
-286 284 -348 0
-286 -284 348 0
290 289 471 0
290 -289 -471 0
-290 289 -471 0
-290 -289 471 0
292 291 314 0
292 -291 -314 0
-292 291 -314 0
-292 -291 314 0
293 291 476 0
293 -291 -476 0
-293 291 -476 0
-293 -291 476 0
295 294 342 0
295 -294 -342 0
-295 294 -342 0
-295 -294 342 0
297 296 323 0
297 -296 -323 0
-297 296 -323 0
-297 -296 323 0
298 296 353 0
298 -296 -353 0
-298 296 -353 0
-298 -296 353 0
299 296 375 0
299 -296 -375 0
-299 296 -375 0
-299 -296 375 0
302 301 351 0
302 -301 -351 0
-302 301 -351 0
-302 -301 351 0
303 301 405 0
303 -301 -405 0
-303 301 -405 0
-303 -301 405 0
304 301 428 0
304 -301 -428 0
-304 301 -428 0
-304 -301 428 0
306 305 356 0
306 -305 -356 0
-306 305 -356 0
-306 -305 356 0
307 305 383 0
307 -305 -383 0
-307 305 -383 0
-307 -305 383 0
308 305 433 0
308 -305 -433 0
-308 305 -433 0
-308 -305 433 0
310 309 421 0
310 -309 -421 0
-310 309 -421 0
-310 -309 421 0
312 311 364 0
312 -311 -364 0
-312 311 -364 0
-312 -311 364 0
315 314 372 0
315 -314 -372 0
-315 314 -372 0
-315 -314 372 0
316 314 479 0
316 -314 -479 0
-316 314 -479 0
-316 -314 479 0
318 317 363 0
318 -317 -363 0
-318 317 -363 0
-318 -317 363 0
319 317 438 0
319 -317 -438 0
-319 317 -438 0
-319 -317 438 0
320 317 472 0
320 -317 -472 0
-320 317 -472 0
-320 -317 472 0
322 321 485 0
322 -321 -485 0
-322 321 -485 0
-322 -321 485 0
324 323 401 0
324 -323 -401 0
-324 323 -401 0
-324 -323 401 0
325 323 461 0
325 -323 -461 0
-325 323 -461 0
-325 -323 461 0
327 326 463 0
327 -326 -463 0
-327 326 -463 0
-327 -326 463 0
328 326 496 0
328 -326 -496 0
-328 326 -496 0
-328 -326 496 0
330 329 374 0
330 -329 -374 0
-330 329 -374 0
-330 -329 374 0
331 329 430 0
331 -329 -430 0
-331 329 -430 0
-331 -329 430 0
332 329 464 0
332 -329 -464 0
-332 329 -464 0
-332 -329 464 0
334 333 432 0
334 -333 -432 0
-334 333 -432 0
-334 -333 432 0
335 333 459 0
335 -333 -459 0
-335 333 -459 0
-335 -333 459 0
338 337 399 0
338 -337 -399 0
-338 337 -399 0
-338 -337 399 0
339 337 409 0
339 -337 -409 0
-339 337 -409 0
-339 -337 409 0
340 337 466 0
340 -337 -466 0
-340 337 -466 0
-340 -337 466 0
341 337 497 0
341 -337 -497 0
-341 337 -497 0
-341 -337 497 0
343 342 395 0
343 -342 -395 0
-343 342 -395 0
-343 -342 395 0
344 342 445 0
344 -342 -445 0
-344 342 -445 0
-344 -342 445 0
345 342 501 0
345 -342 -501 0
-345 342 -501 0
-345 -342 501 0
346 342 502 0
346 -342 -502 0
-346 342 -502 0
-346 -342 502 0
350 349 432 0
350 -349 -432 0
-350 349 -432 0
-350 -349 432 0
352 351 448 0
352 -351 -448 0
-352 351 -448 0
-352 -351 448 0
354 353 412 0
354 -353 -412 0
-354 353 -412 0
-354 -353 412 0
355 353 458 0
355 -353 -458 0
-355 353 -458 0
-355 -353 458 0
357 356 392 0
357 -356 -392 0
-357 356 -392 0
-357 -356 392 0
358 356 433 0
358 -356 -433 0
-358 356 -433 0
-358 -356 433 0
359 356 458 0
359 -356 -458 0
-359 356 -458 0
-359 -356 458 0
361 360 367 0
361 -360 -367 0
-361 360 -367 0
-361 -360 367 0
362 360 378 0
362 -360 -378 0
-362 360 -378 0
-362 -360 378 0
366 365 428 0
366 -365 -428 0
-366 365 -428 0
-366 -365 428 0
368 367 395 0
368 -367 -395 0
-368 367 -395 0
-368 -367 395 0
369 367 440 0
369 -367 -440 0
-369 367 -440 0
-369 -367 440 0
370 367 450 0
370 -367 -450 0
-370 367 -450 0
-370 -367 450 0
371 367 461 0
371 -367 -461 0
-371 367 -461 0
-371 -367 461 0
373 372 496 0
373 -372 -496 0
-373 372 -496 0
-373 -372 496 0
376 375 487 0
376 -375 -487 0
-376 375 -487 0
-376 -375 487 0
377 375 500 0
377 -375 -500 0
-377 375 -500 0
-377 -375 500 0
379 378 446 0
379 -378 -446 0
-379 378 -446 0
-379 -378 446 0
380 378 491 0
380 -378 -491 0
-380 378 -491 0
-380 -378 491 0
382 381 492 0
382 -381 -492 0
-382 381 -492 0
-382 -381 492 0
384 383 405 0
384 -383 -405 0
-384 383 -405 0
-384 -383 405 0
385 383 420 0
385 -383 -420 0
-385 383 -420 0
-385 -383 420 0
386 383 448 0
386 -383 -448 0
-386 383 -448 0
-386 -383 448 0
387 383 450 0
387 -383 -450 0
-387 383 -450 0
-387 -383 450 0
389 388 401 0
389 -388 -401 0
-389 388 -401 0
-389 -388 401 0
390 388 448 0
390 -388 -448 0
-390 388 -448 0
-390 -388 448 0
391 388 472 0
391 -388 -472 0
-391 388 -472 0
-391 -388 472 0
393 392 448 0
393 -392 -448 0
-393 392 -448 0
-393 -392 448 0
394 392 466 0
394 -392 -466 0
-394 392 -466 0
-394 -392 466 0
396 395 421 0
396 -395 -421 0
-396 395 -421 0
-396 -395 421 0
397 395 464 0
397 -395 -464 0
-397 395 -464 0
-397 -395 464 0
398 395 483 0
398 -395 -483 0
-398 395 -483 0
-398 -395 483 0
400 399 476 0
400 -399 -476 0
-400 399 -476 0
-400 -399 476 0
402 401 426 0
402 -401 -426 0
-402 401 -426 0
-402 -401 426 0
404 403 412 0
404 -403 -412 0
-404 403 -412 0
-404 -403 412 0
406 405 484 0
406 -405 -484 0
-406 405 -484 0
-406 -405 484 0
408 407 467 0
408 -407 -467 0
-408 407 -467 0
-408 -407 467 0
410 409 448 0
410 -409 -448 0
-410 409 -448 0
-410 -409 448 0
411 409 497 0
411 -409 -497 0
-411 409 -497 0
-411 -409 497 0
413 412 440 0
413 -412 -440 0
-413 412 -440 0
-413 -412 440 0
414 412 445 0
414 -412 -445 0
-414 412 -445 0
-414 -412 445 0
416 415 448 0
416 -415 -448 0
-416 415 -448 0
-416 -415 448 0
417 415 450 0
417 -415 -450 0
-417 415 -450 0
-417 -415 450 0
418 415 487 0
418 -415 -487 0
-418 415 -487 0
-418 -415 487 0
422 421 438 0
422 -421 -438 0
-422 421 -438 0
-422 -421 438 0
423 421 440 0
423 -421 -440 0
-423 421 -440 0
-423 -421 440 0
424 421 471 0
424 -421 -471 0
-424 421 -471 0
-424 -421 471 0
425 421 501 0
425 -421 -501 0
-425 421 -501 0
-425 -421 501 0
427 426 458 0
427 -426 -458 0
-427 426 -458 0
-427 -426 458 0
429 428 502 0
429 -428 -502 0
-429 428 -502 0
-429 -428 502 0
431 430 484 0
431 -430 -484 0
-431 430 -484 0
-431 -430 484 0
434 433 450 0
434 -433 -450 0
-434 433 -450 0
-434 -433 450 0
435 433 459 0
435 -433 -459 0
-435 433 -459 0
-435 -433 459 0
437 436 450 0
437 -436 -450 0
-437 436 -450 0
-437 -436 450 0
439 438 494 0
439 -438 -494 0
-439 438 -494 0
-439 -438 494 0
441 440 464 0
441 -440 -464 0
-441 440 -464 0
-441 -440 464 0
443 442 455 0
443 -442 -455 0
-443 442 -455 0
-443 -442 455 0
444 442 476 0
444 -442 -476 0
-444 442 -476 0
-444 -442 476 0
447 446 475 0
447 -446 -475 0
-447 446 -475 0
-447 -446 475 0
449 448 487 0
449 -448 -487 0
-449 448 -487 0
-449 -448 487 0
451 450 465 0
451 -450 -465 0
-451 450 -465 0
-451 -450 465 0
453 452 485 0
453 -452 -485 0
-453 452 -485 0
-453 -452 485 0
454 452 500 0
454 -452 -500 0
-454 452 -500 0
-454 -452 500 0
456 455 491 0
456 -455 -491 0
-456 455 -491 0
-456 -455 491 0
460 459 485 0
460 -459 -485 0
-460 459 -485 0
-460 -459 485 0
462 461 498 0
462 -461 -498 0
-462 461 -498 0
-462 -461 498 0
468 467 471 0
468 -467 -471 0
-468 467 -471 0
-468 -467 471 0
473 472 483 0
473 -472 -483 0
-473 472 -483 0
-473 -472 483 0
474 472 494 0
474 -472 -494 0
-474 472 -494 0
-474 -472 494 0
477 476 484 0
477 -476 -484 0
-477 476 -484 0
-477 -476 484 0
480 479 485 0
480 -479 -485 0
-480 479 -485 0
-480 -479 485 0
482 481 494 0
482 -481 -494 0
-482 481 -494 0
-482 -481 494 0
486 485 497 0
486 -485 -497 0
-486 485 -497 0
-486 -485 497 0
488 487 499 0
488 -487 -499 0
-488 487 -499 0
-488 -487 499 0
490 489 500 0
490 -489 -500 0
-490 489 -500 0
-490 -489 500 0
